c generated by sgen
p cnf 77 164
-2 -3 -4 0
-1 -3 -4 0
-1 -2 -4 0
-1 -2 -3 0
-6 -7 -8 0
-5 -7 -8 0
-5 -6 -8 0
-5 -6 -7 0
-10 -11 -12 0
-9 -11 -12 0
-9 -10 -12 0
-9 -10 -11 0
-14 -15 -16 0
-13 -15 -16 0
-13 -14 -16 0
-13 -14 -15 0
-18 -19 -20 0
-17 -19 -20 0
-17 -18 -20 0
-17 -18 -19 0
-22 -23 -24 0
-21 -23 -24 0
-21 -22 -24 0
-21 -22 -23 0
-26 -27 -28 0
-25 -27 -28 0
-25 -26 -28 0
-25 -26 -27 0
-30 -31 -32 0
-29 -31 -32 0
-29 -30 -32 0
-29 -30 -31 0
-34 -35 -36 0
-33 -35 -36 0
-33 -34 -36 0
-33 -34 -35 0
-38 -39 -40 0
-37 -39 -40 0
-37 -38 -40 0
-37 -38 -39 0
-42 -43 -44 0
-41 -43 -44 0
-41 -42 -44 0
-41 -42 -43 0
-46 -47 -48 0
-45 -47 -48 0
-45 -46 -48 0
-45 -46 -47 0
-50 -51 -52 0
-49 -51 -52 0
-49 -50 -52 0
-49 -50 -51 0
-54 -55 -56 0
-53 -55 -56 0
-53 -54 -56 0
-53 -54 -55 0
-58 -59 -60 0
-57 -59 -60 0
-57 -58 -60 0
-57 -58 -59 0
-62 -63 -64 0
-61 -63 -64 0
-61 -62 -64 0
-61 -62 -63 0
-66 -67 -68 0
-65 -67 -68 0
-65 -66 -68 0
-65 -66 -67 0
-70 -71 -72 0
-69 -71 -72 0
-69 -70 -72 0
-69 -70 -71 0
-73 -74 -75 0
-73 -74 -76 0
-73 -74 -77 0
-73 -75 -76 0
-73 -75 -77 0
-73 -76 -77 0
-74 -75 -76 0
-74 -75 -77 0
-74 -76 -77 0
-75 -76 -77 0
63 24 37 0
60 24 37 0
60 63 37 0
60 63 24 0
16 1 6 0
19 1 6 0
19 16 6 0
19 16 1 0
21 68 70 0
30 68 70 0
30 21 70 0
30 21 68 0
3 34 43 0
22 34 43 0
22 3 43 0
22 3 34 0
40 56 77 0
15 56 77 0
15 40 77 0
15 40 56 0
45 25 31 0
4 25 31 0
4 45 31 0
4 45 25 0
47 71 42 0
7 71 42 0
7 47 42 0
7 47 71 0
72 35 61 0
54 35 61 0
54 72 61 0
54 72 35 0
13 9 62 0
48 9 62 0
48 13 62 0
48 13 9 0
28 73 44 0
17 73 44 0
17 28 44 0
17 28 73 0
14 36 59 0
26 36 59 0
26 14 59 0
26 14 36 0
8 23 49 0
53 23 49 0
53 8 49 0
53 8 23 0
11 50 27 0
66 50 27 0
66 11 27 0
66 11 50 0
29 39 10 0
41 39 10 0
41 29 10 0
41 29 39 0
20 55 67 0
57 55 67 0
57 20 67 0
57 20 55 0
76 5 65 0
33 5 65 0
33 76 65 0
33 76 5 0
18 38 46 0
51 38 46 0
51 18 46 0
51 18 38 0
32 64 74 0
52 64 74 0
52 32 74 0
52 32 64 0
69 2 12 0
69 2 75 0
69 2 58 0
69 12 75 0
69 12 58 0
69 75 58 0
2 12 75 0
2 12 58 0
2 75 58 0
12 75 58 0
